Traveling Salesman Problem/TSP_generados/Aleatorio1621103395_13.tsp
NAME: Aleatorio1621103395_13.tsp
COMMENT: Randomly generated scenario
TYPE: TSP
DIMENSION: 13
EDGE_WEIGHT_TYPE: ATT
NODE_COORD_SECTION
1 43.81 33.71
2 22.52 48.22
3 7.61 39.02
4 41.74 26.28
5 20.97 9.1
6 15.77 22.83
7 7.93 10.26
8 43.16 38.91
9 29.64 1.17
10 21.54 32.9
11 49.01 25.11
12 37.51 2.5
13 25.74 12.18
