Traveling Salesman Problem/TSP_generados/Aleatorio1621103395_13.opt.tour
NAME: Aleatorio1621103395_13.opt.tour
COMMENT: Optimal solution for Aleatorio1621103395_13 (165.91298551740243)
TYPE: TOUR
DIMENSION: 13
TOUR_SECTION
1 8 2 3 10 6 7 5 13 9 12 11 4
-1
EOF
